8341.97,72.91,90.44
9490.11,64.09,79.5
8635.23,70.43,87.37
9119.58,66.69,82.73
9900.29,61.43,76.21
8650.13,70.31,87.22
8765.77,69.38,86.07
9340.23,65.12,80.78
9352.44,65.03,80.67
9558.18,63.63,78.94
8138.26,74.73,92.71
9485.97,64.12,79.54
9330.0,65.19,80.87
9605.52,63.32,78.55
9121.64,66.68,82.71
9040.83,67.27,83.45
9352.37,65.03,80.67
9807.77,62.01,76.93
8743.4,69.56,86.29
9921.24,61.3,76.05
